0 119 23 48 200 45 35 86 86 18 90 17 51 92 7 
66 0 131 80 3 56 62 106 68 38 93 185 116 36 11 
120 169 0 115 185 179 131 13 41 186 97 70 148 188 25 
120 44 98 0 6 190 95 163 172 117 151 46 179 35 120 
61 48 150 195 0 51 116 191 113 170 57 52 16 76 163 
49 33 60 86 166 0 107 132 23 12 138 154 91 171 137 
165 179 160 122 102 22 0 125 50 170 134 101 134 147 149 
169 145 51 149 44 23 44 0 27 71 162 61 21 144 72 
145 62 11 166 191 84 17 126 0 76 138 138 189 113 189 
168 66 46 136 160 8 181 35 188 0 153 102 58 96 175 
57 49 101 28 87 198 52 117 117 190 0 176 38 61 163 
186 98 139 89 197 89 109 74 31 185 114 0 185 172 104 
97 95 187 39 10 185 86 178 62 120 56 170 0 170 30 
21 113 156 149 148 110 144 34 93 86 63 3 45 0 156 
34 141 90 152 103 56 59 64 126 158 196 76 186 63 0 